p tw 1460 21901 7 
1 8 
1 221 
2 9 
2 10 
2 222 
3 7 
3 10 
3 681 
4 8 
4 9 
4 682 
5 7 
5 9 
5 751 
6 8 
6 10 
6 752 
11 17 
11 18 
11 431 
12 19 
12 20 
12 432 
13 17 
13 20 
13 831 
14 18 
14 19 
14 832 
15 17 
15 19 
15 1131 
16 18 
16 20 
16 1132 
21 27 
21 28 
21 401 
22 29 
22 30 
22 402 
23 27 
23 30 
23 481 
24 28 
24 29 
24 482 
25 27 
25 29 
25 911 
26 28 
26 30 
26 912 
31 37 
31 38 
31 231 
32 39 
32 40 
32 232 
33 37 
33 40 
33 391 
34 38 
34 39 
34 392 
35 37 
35 39 
35 1441 
36 38 
36 40 
36 1442 
41 47 
41 48 
41 541 
42 49 
42 50 
42 542 
43 47 
43 50 
43 1061 
44 48 
44 49 
44 1062 
45 47 
45 49 
45 1291 
46 48 
46 50 
46 1292 
51 57 
51 58 
51 121 
52 59 
52 60 
52 122 
53 57 
53 60 
53 371 
54 58 
54 59 
54 372 
55 57 
55 59 
55 491 
56 58 
56 60 
56 492 
61 67 
61 68 
61 381 
62 69 
62 70 
62 382 
63 67 
63 70 
63 521 
64 68 
64 69 
64 522 
65 67 
65 69 
65 913 
66 68 
66 70 
66 914 
71 77 
71 78 
71 493 
72 79 
72 80 
72 494 
73 77 
73 80 
73 1201 
74 78 
74 79 
74 1202 
75 77 
75 79 
75 1401 
76 78 
76 80 
76 1402 
81 87 
81 88 
81 341 
82 89 
82 90 
82 342 
83 87 
83 90 
83 411 
84 88 
84 89 
84 412 
85 87 
85 89 
85 601 
86 88 
86 90 
86 602 
91 97 
91 98 
91 361 
92 99 
92 100 
92 362 
93 97 
93 100 
93 841 
94 98 
94 99 
94 842 
95 97 
95 99 
95 1361 
96 98 
96 100 
96 1362 
101 107 
101 108 
101 471 
102 109 
102 110 
102 472 
103 107 
103 110 
103 771 
104 108 
104 109 
104 772 
105 107 
105 109 
105 1071 
106 108 
106 110 
106 1072 
111 117 
111 118 
111 461 
112 119 
112 120 
112 462 
113 117 
113 120 
113 611 
114 118 
114 119 
114 612 
115 117 
115 119 
115 1381 
116 118 
116 120 
116 1382 
121 127 
121 128 
122 129 
122 130 
123 127 
123 130 
123 811 
124 128 
124 129 
124 812 
125 127 
125 129 
125 1321 
126 128 
126 130 
126 1322 
131 137 
131 138 
131 161 
132 139 
132 140 
132 162 
133 137 
133 140 
133 351 
134 138 
134 139 
134 352 
135 137 
135 139 
135 1451 
136 138 
136 140 
136 1452 
141 147 
141 148 
141 731 
142 149 
142 150 
142 732 
143 147 
143 150 
143 1091 
144 148 
144 149 
144 1092 
145 147 
145 149 
145 1203 
146 148 
146 150 
146 1204 
151 157 
151 158 
151 291 
152 159 
152 160 
152 292 
153 157 
153 160 
153 1231 
154 158 
154 159 
154 1232 
155 157 
155 159 
155 1271 
156 158 
156 160 
156 1272 
161 167 
161 168 
162 169 
162 170 
163 167 
163 170 
163 661 
164 168 
164 169 
164 662 
165 167 
165 169 
165 861 
166 168 
166 170 
166 862 
171 177 
171 178 
171 773 
172 179 
172 180 
172 774 
173 177 
173 180 
173 781 
174 178 
174 179 
174 782 
175 177 
175 179 
175 881 
176 178 
176 180 
176 882 
181 187 
181 188 
181 211 
182 189 
182 190 
182 212 
183 187 
183 190 
183 1093 
184 188 
184 189 
184 1094 
185 187 
185 189 
185 1273 
186 188 
186 190 
186 1274 
191 197 
191 198 
191 321 
192 199 
192 200 
192 322 
193 197 
193 200 
193 621 
194 198 
194 199 
194 622 
195 197 
195 199 
195 701 
196 198 
196 200 
196 702 
201 207 
201 208 
201 843 
202 209 
202 210 
202 844 
203 207 
203 210 
203 1051 
204 208 
204 209 
204 1052 
205 207 
205 209 
205 1383 
206 208 
206 210 
206 1384 
211 217 
211 218 
212 219 
212 220 
213 217 
213 220 
213 623 
214 218 
214 219 
214 624 
215 217 
215 219 
215 1001 
216 218 
216 220 
216 1002 
221 227 
221 228 
222 229 
222 230 
223 227 
223 230 
223 753 
224 228 
224 229 
224 754 
225 227 
225 229 
225 1221 
226 228 
226 230 
226 1222 
231 237 
231 238 
232 239 
232 240 
233 237 
233 240 
233 741 
234 238 
234 239 
234 742 
235 237 
235 239 
235 971 
236 238 
236 240 
236 972 
241 247 
241 248 
241 311 
242 249 
242 250 
242 312 
243 247 
243 250 
243 353 
244 248 
244 249 
244 354 
245 247 
245 249 
245 883 
246 248 
246 250 
246 884 
251 257 
251 258 
251 863 
252 259 
252 260 
252 864 
253 257 
253 260 
253 1031 
254 258 
254 259 
254 1032 
255 257 
255 259 
255 1293 
256 258 
256 260 
256 1294 
261 267 
261 268 
261 743 
262 269 
262 270 
262 744 
263 267 
263 270 
263 1371 
264 268 
264 269 
264 1372 
265 267 
265 269 
265 1443 
266 268 
266 270 
266 1444 
271 277 
271 278 
271 1081 
272 279 
272 280 
272 1082 
273 277 
273 280 
273 1241 
274 278 
274 279 
274 1242 
275 277 
275 279 
275 1301 
276 278 
276 280 
276 1302 
281 287 
281 288 
281 433 
282 289 
282 290 
282 434 
283 287 
283 290 
283 451 
284 288 
284 289 
284 452 
285 287 
285 289 
285 651 
286 288 
286 290 
286 652 
291 297 
291 298 
292 299 
292 300 
293 297 
293 300 
293 383 
294 298 
294 299 
294 384 
295 297 
295 299 
295 511 
296 298 
296 300 
296 512 
301 307 
301 308 
301 631 
302 309 
302 310 
302 632 
303 307 
303 310 
303 733 
304 308 
304 309 
304 734 
305 307 
305 309 
305 1073 
306 308 
306 310 
306 1074 
311 317 
311 318 
312 319 
312 320 
313 317 
313 320 
313 531 
314 318 
314 319 
314 532 
315 317 
315 319 
315 711 
316 318 
316 320 
316 712 
321 327 
321 328 
322 329 
322 330 
323 327 
323 330 
323 713 
324 328 
324 329 
324 714 
325 327 
325 329 
325 1121 
326 328 
326 330 
326 1122 
331 337 
331 338 
331 951 
332 339 
332 340 
332 952 
333 337 
333 340 
333 1151 
334 338 
334 339 
334 1152 
335 337 
335 339 
335 1205 
336 338 
336 340 
336 1206 
341 347 
341 348 
342 349 
342 350 
343 347 
343 350 
343 1281 
344 348 
344 349 
344 1282 
345 347 
345 349 
345 1411 
346 348 
346 350 
346 1412 
351 357 
351 358 
352 359 
352 360 
353 357 
353 360 
354 358 
354 359 
355 357 
355 359 
355 413 
356 358 
356 360 
356 414 
361 367 
361 368 
362 369 
362 370 
363 367 
363 370 
363 973 
364 368 
364 369 
364 974 
365 367 
365 369 
365 1063 
366 368 
366 370 
366 1064 
371 377 
371 378 
372 379 
372 380 
373 377 
373 380 
373 981 
374 378 
374 379 
374 982 
375 377 
375 379 
375 1391 
376 378 
376 380 
376 1392 
381 387 
381 388 
382 389 
382 390 
383 387 
383 390 
384 388 
384 389 
385 387 
385 389 
385 551 
386 388 
386 390 
386 552 
391 397 
391 398 
392 399 
392 400 
393 397 
393 400 
393 591 
394 398 
394 399 
394 592 
395 397 
395 399 
395 845 
396 398 
396 400 
396 846 
401 407 
401 408 
402 409 
402 410 
403 407 
403 410 
403 1041 
404 408 
404 409 
404 1042 
405 407 
405 409 
405 1363 
406 408 
406 410 
406 1364 
411 417 
411 418 
412 419 
412 420 
413 417 
413 420 
414 418 
414 419 
415 417 
415 419 
415 671 
416 418 
416 420 
416 672 
421 427 
421 428 
421 633 
422 429 
422 430 
422 634 
423 427 
423 430 
423 871 
424 428 
424 429 
424 872 
425 427 
425 429 
425 1431 
426 428 
426 430 
426 1432 
431 437 
431 438 
432 439 
432 440 
433 437 
433 440 
434 438 
434 439 
435 437 
435 439 
435 1043 
436 438 
436 440 
436 1044 
441 447 
441 448 
441 523 
442 449 
442 450 
442 524 
443 447 
443 450 
443 915 
444 448 
444 449 
444 916 
445 447 
445 449 
445 1083 
446 448 
446 450 
446 1084 
451 457 
451 458 
452 459 
452 460 
453 457 
453 460 
453 791 
454 458 
454 459 
454 792 
455 457 
455 459 
455 1181 
456 458 
456 460 
456 1182 
461 467 
461 468 
462 469 
462 470 
463 467 
463 470 
463 941 
464 468 
464 469 
464 942 
465 467 
465 469 
465 1101 
466 468 
466 470 
466 1102 
471 477 
471 478 
472 479 
472 480 
473 477 
473 480 
473 1021 
474 478 
474 479 
474 1022 
475 477 
475 479 
475 1433 
476 478 
476 480 
476 1434 
481 487 
481 488 
482 489 
482 490 
483 487 
483 490 
483 663 
484 488 
484 489 
484 664 
485 487 
485 489 
485 1323 
486 488 
486 490 
486 1324 
491 497 
491 498 
492 499 
492 500 
493 497 
493 500 
494 498 
494 499 
495 497 
495 499 
495 1351 
496 498 
496 500 
496 1352 
501 507 
501 508 
501 813 
502 509 
502 510 
502 814 
503 507 
503 510 
503 961 
504 508 
504 509 
504 962 
505 507 
505 509 
505 1233 
506 508 
506 510 
506 1234 
511 517 
511 518 
512 519 
512 520 
513 517 
513 520 
513 943 
514 518 
514 519 
514 944 
515 517 
515 519 
515 983 
516 518 
516 520 
516 984 
521 527 
521 528 
522 529 
522 530 
523 527 
523 530 
524 528 
524 529 
525 527 
525 529 
525 1111 
526 528 
526 530 
526 1112 
531 537 
531 538 
532 539 
532 540 
533 537 
533 540 
533 1341 
534 538 
534 539 
534 1342 
535 537 
535 539 
535 1393 
536 538 
536 540 
536 1394 
541 547 
541 548 
542 549 
542 550 
543 547 
543 550 
543 653 
544 548 
544 549 
544 654 
545 547 
545 549 
545 721 
546 548 
546 550 
546 722 
551 557 
551 558 
552 559 
552 560 
553 557 
553 560 
553 581 
554 558 
554 559 
554 582 
555 557 
555 559 
555 1365 
556 558 
556 560 
556 1366 
561 567 
561 568 
561 715 
562 569 
562 570 
562 716 
563 567 
563 570 
563 755 
564 568 
564 569 
564 756 
565 567 
565 569 
565 885 
566 568 
566 570 
566 886 
571 577 
571 578 
571 583 
572 579 
572 580 
572 584 
573 577 
573 580 
573 635 
574 578 
574 579 
574 636 
575 577 
575 579 
575 1171 
576 578 
576 580 
576 1172 
581 587 
581 588 
582 589 
582 590 
583 587 
583 590 
584 588 
584 589 
585 587 
585 589 
585 873 
586 588 
586 590 
586 874 
591 597 
591 598 
592 599 
592 600 
593 597 
593 600 
593 735 
594 598 
594 599 
594 736 
595 597 
595 599 
595 901 
596 598 
596 600 
596 902 
601 607 
601 608 
602 609 
602 610 
603 607 
603 610 
603 1173 
604 608 
604 609 
604 1174 
605 607 
605 609 
605 1421 
606 608 
606 610 
606 1422 
611 617 
611 618 
612 619 
612 620 
613 617 
613 620 
613 953 
614 618 
614 619 
614 954 
615 617 
615 619 
615 1403 
616 618 
616 620 
616 1404 
621 627 
621 628 
622 629 
622 630 
623 627 
623 630 
624 628 
624 629 
625 627 
625 629 
625 1223 
626 628 
626 630 
626 1224 
631 637 
631 638 
632 639 
632 640 
633 637 
633 640 
634 638 
634 639 
635 637 
635 639 
636 638 
636 640 
641 647 
641 648 
641 673 
642 649 
642 650 
642 674 
643 647 
643 650 
643 1331 
644 648 
644 649 
644 1332 
645 647 
645 649 
645 1353 
646 648 
646 650 
646 1354 
651 657 
651 658 
652 659 
652 660 
653 657 
653 660 
654 658 
654 659 
655 657 
655 659 
655 1133 
656 658 
656 660 
656 1134 
661 667 
661 668 
662 669 
662 670 
663 667 
663 670 
664 668 
664 669 
665 667 
665 669 
665 1261 
666 668 
666 670 
666 1262 
671 677 
671 678 
672 679 
672 680 
673 677 
673 680 
674 678 
674 679 
675 677 
675 679 
675 821 
676 678 
676 680 
676 822 
681 687 
681 688 
682 689 
682 690 
683 687 
683 690 
683 963 
684 688 
684 689 
684 964 
685 687 
685 689 
685 1011 
686 688 
686 690 
686 1012 
691 697 
691 698 
691 991 
692 699 
692 700 
692 992 
693 697 
693 700 
693 1141 
694 698 
694 699 
694 1142 
695 697 
695 699 
695 1295 
696 698 
696 700 
696 1296 
701 707 
701 708 
702 709 
702 710 
703 707 
703 710 
703 1085 
704 708 
704 709 
704 1086 
705 707 
705 709 
705 1211 
706 708 
706 710 
706 1212 
711 717 
711 718 
712 719 
712 720 
713 717 
713 720 
714 718 
714 719 
715 717 
715 719 
716 718 
716 720 
721 727 
721 728 
722 729 
722 730 
723 727 
723 730 
723 761 
724 728 
724 729 
724 762 
725 727 
725 729 
725 1023 
726 728 
726 730 
726 1024 
731 737 
731 738 
732 739 
732 740 
733 737 
733 740 
734 738 
734 739 
735 737 
735 739 
736 738 
736 740 
741 747 
741 748 
742 749 
742 750 
743 747 
743 750 
744 748 
744 749 
745 747 
745 749 
745 1065 
746 748 
746 750 
746 1066 
751 757 
751 758 
752 759 
752 760 
753 757 
753 760 
754 758 
754 759 
755 757 
755 759 
756 758 
756 760 
761 767 
761 768 
762 769 
762 770 
763 767 
763 770 
763 993 
764 768 
764 769 
764 994 
765 767 
765 769 
765 1053 
766 768 
766 770 
766 1054 
771 777 
771 778 
772 779 
772 780 
773 777 
773 780 
774 778 
774 779 
775 777 
775 779 
775 851 
776 778 
776 780 
776 852 
781 787 
781 788 
782 789 
782 790 
783 787 
783 790 
783 1153 
784 788 
784 789 
784 1154 
785 787 
785 789 
785 1263 
786 788 
786 790 
786 1264 
791 797 
791 798 
792 799 
792 800 
793 797 
793 800 
793 903 
794 798 
794 799 
794 904 
795 797 
795 799 
795 1251 
796 798 
796 800 
796 1252 
801 807 
801 808 
801 891 
802 809 
802 810 
802 892 
803 807 
803 810 
803 905 
804 808 
804 809 
804 906 
805 807 
805 809 
805 1311 
806 808 
806 810 
806 1312 
811 817 
811 818 
812 819 
812 820 
813 817 
813 820 
814 818 
814 819 
815 817 
815 819 
815 1045 
816 818 
816 820 
816 1046 
821 827 
821 828 
822 829 
822 830 
823 827 
823 830 
823 1161 
824 828 
824 829 
824 1162 
825 827 
825 829 
825 1325 
826 828 
826 830 
826 1326 
831 837 
831 838 
832 839 
832 840 
833 837 
833 840 
833 1175 
834 838 
834 839 
834 1176 
835 837 
835 839 
835 1413 
836 838 
836 840 
836 1414 
841 847 
841 848 
842 849 
842 850 
843 847 
843 850 
844 848 
844 849 
845 847 
845 849 
846 848 
846 850 
851 857 
851 858 
852 859 
852 860 
853 857 
853 860 
853 1183 
854 858 
854 859 
854 1184 
855 857 
855 859 
855 1415 
856 858 
856 860 
856 1416 
861 867 
861 868 
862 869 
862 870 
863 867 
863 870 
864 868 
864 869 
865 867 
865 869 
865 1243 
866 868 
866 870 
866 1244 
871 877 
871 878 
872 879 
872 880 
873 877 
873 880 
874 878 
874 879 
875 877 
875 879 
875 1025 
876 878 
876 880 
876 1026 
881 887 
881 888 
882 889 
882 890 
883 887 
883 890 
884 888 
884 889 
885 887 
885 889 
886 888 
886 890 
891 897 
891 898 
892 899 
892 900 
893 897 
893 900 
893 945 
894 898 
894 899 
894 946 
895 897 
895 899 
895 1003 
896 898 
896 900 
896 1004 
901 907 
901 908 
902 909 
902 910 
903 907 
903 910 
904 908 
904 909 
905 907 
905 909 
906 908 
906 910 
911 917 
911 918 
912 919 
912 920 
913 917 
913 920 
914 918 
914 919 
915 917 
915 919 
916 918 
916 920 
921 927 
921 928 
921 931 
922 929 
922 930 
922 932 
923 927 
923 930 
923 975 
924 928 
924 929 
924 976 
925 927 
925 929 
925 1163 
926 928 
926 930 
926 1164 
931 937 
931 938 
932 939 
932 940 
933 937 
933 940 
933 965 
934 938 
934 939 
934 966 
935 937 
935 939 
935 1123 
936 938 
936 940 
936 1124 
941 947 
941 948 
942 949 
942 950 
943 947 
943 950 
944 948 
944 949 
945 947 
945 949 
946 948 
946 950 
951 957 
951 958 
952 959 
952 960 
953 957 
953 960 
954 958 
954 959 
955 957 
955 959 
955 1135 
956 958 
956 960 
956 1136 
961 967 
961 968 
962 969 
962 970 
963 967 
963 970 
964 968 
964 969 
965 967 
965 969 
966 968 
966 970 
971 977 
971 978 
972 979 
972 980 
973 977 
973 980 
974 978 
974 979 
975 977 
975 979 
976 978 
976 980 
981 987 
981 988 
982 989 
982 990 
983 987 
983 990 
984 988 
984 989 
985 987 
985 989 
985 1405 
986 988 
986 990 
986 1406 
991 997 
991 998 
992 999 
992 1000 
993 997 
993 1000 
994 998 
994 999 
995 997 
995 999 
995 1113 
996 998 
996 1000 
996 1114 
1001 1007 
1001 1008 
1002 1009 
1002 1010 
1003 1007 
1003 1010 
1004 1008 
1004 1009 
1005 1007 
1005 1009 
1005 1213 
1006 1008 
1006 1010 
1006 1214 
1011 1017 
1011 1018 
1012 1019 
1012 1020 
1013 1017 
1013 1020 
1013 1055 
1014 1018 
1014 1019 
1014 1056 
1015 1017 
1015 1019 
1015 1283 
1016 1018 
1016 1020 
1016 1284 
1021 1027 
1021 1028 
1022 1029 
1022 1030 
1023 1027 
1023 1030 
1024 1028 
1024 1029 
1025 1027 
1025 1029 
1026 1028 
1026 1030 
1031 1037 
1031 1038 
1032 1039 
1032 1040 
1033 1037 
1033 1040 
1033 1275 
1034 1038 
1034 1039 
1034 1276 
1035 1037 
1035 1039 
1035 1303 
1036 1038 
1036 1040 
1036 1304 
1041 1047 
1041 1048 
1042 1049 
1042 1050 
1043 1047 
1043 1050 
1044 1048 
1044 1049 
1045 1047 
1045 1049 
1046 1048 
1046 1050 
1051 1057 
1051 1058 
1052 1059 
1052 1060 
1053 1057 
1053 1060 
1054 1058 
1054 1059 
1055 1057 
1055 1059 
1056 1058 
1056 1060 
1061 1067 
1061 1068 
1062 1069 
1062 1070 
1063 1067 
1063 1070 
1064 1068 
1064 1069 
1065 1067 
1065 1069 
1066 1068 
1066 1070 
1071 1077 
1071 1078 
1072 1079 
1072 1080 
1073 1077 
1073 1080 
1074 1078 
1074 1079 
1075 1077 
1075 1079 
1075 1343 
1076 1078 
1076 1080 
1076 1344 
1081 1087 
1081 1088 
1082 1089 
1082 1090 
1083 1087 
1083 1090 
1084 1088 
1084 1089 
1085 1087 
1085 1089 
1086 1088 
1086 1090 
1091 1097 
1091 1098 
1092 1099 
1092 1100 
1093 1097 
1093 1100 
1094 1098 
1094 1099 
1095 1097 
1095 1099 
1095 1385 
1096 1098 
1096 1100 
1096 1386 
1101 1107 
1101 1108 
1102 1109 
1102 1110 
1103 1107 
1103 1110 
1103 1155 
1104 1108 
1104 1109 
1104 1156 
1105 1107 
1105 1109 
1105 1305 
1106 1108 
1106 1110 
1106 1306 
1111 1117 
1111 1118 
1112 1119 
1112 1120 
1113 1117 
1113 1120 
1114 1118 
1114 1119 
1115 1117 
1115 1119 
1115 1235 
1116 1118 
1116 1120 
1116 1236 
1121 1127 
1121 1128 
1122 1129 
1122 1130 
1123 1127 
1123 1130 
1124 1128 
1124 1129 
1125 1127 
1125 1129 
1125 1191 
1126 1128 
1126 1130 
1126 1192 
1131 1137 
1131 1138 
1132 1139 
1132 1140 
1133 1137 
1133 1140 
1134 1138 
1134 1139 
1135 1137 
1135 1139 
1136 1138 
1136 1140 
1141 1147 
1141 1148 
1142 1149 
1142 1150 
1143 1147 
1143 1150 
1143 1193 
1144 1148 
1144 1149 
1144 1194 
1145 1147 
1145 1149 
1145 1453 
1146 1148 
1146 1150 
1146 1454 
1151 1157 
1151 1158 
1152 1159 
1152 1160 
1153 1157 
1153 1160 
1154 1158 
1154 1159 
1155 1157 
1155 1159 
1156 1158 
1156 1160 
1161 1167 
1161 1168 
1162 1169 
1162 1170 
1163 1167 
1163 1170 
1164 1168 
1164 1169 
1165 1167 
1165 1169 
1165 1445 
1166 1168 
1166 1170 
1166 1446 
1171 1177 
1171 1178 
1172 1179 
1172 1180 
1173 1177 
1173 1180 
1174 1178 
1174 1179 
1175 1177 
1175 1179 
1176 1178 
1176 1180 
1181 1187 
1181 1188 
1182 1189 
1182 1190 
1183 1187 
1183 1190 
1184 1188 
1184 1189 
1185 1187 
1185 1189 
1185 1423 
1186 1188 
1186 1190 
1186 1424 
1191 1197 
1191 1198 
1192 1199 
1192 1200 
1193 1197 
1193 1200 
1194 1198 
1194 1199 
1195 1197 
1195 1199 
1195 1333 
1196 1198 
1196 1200 
1196 1334 
1201 1207 
1201 1208 
1202 1209 
1202 1210 
1203 1207 
1203 1210 
1204 1208 
1204 1209 
1205 1207 
1205 1209 
1206 1208 
1206 1210 
1211 1217 
1211 1218 
1212 1219 
1212 1220 
1213 1217 
1213 1220 
1214 1218 
1214 1219 
1215 1217 
1215 1219 
1215 1395 
1216 1218 
1216 1220 
1216 1396 
1221 1227 
1221 1228 
1222 1229 
1222 1230 
1223 1227 
1223 1230 
1224 1228 
1224 1229 
1225 1227 
1225 1229 
1225 1313 
1226 1228 
1226 1230 
1226 1314 
1231 1237 
1231 1238 
1232 1239 
1232 1240 
1233 1237 
1233 1240 
1234 1238 
1234 1239 
1235 1237 
1235 1239 
1236 1238 
1236 1240 
1241 1247 
1241 1248 
1242 1249 
1242 1250 
1243 1247 
1243 1250 
1244 1248 
1244 1249 
1245 1247 
1245 1249 
1245 1345 
1246 1248 
1246 1250 
1246 1346 
1251 1257 
1251 1258 
1252 1259 
1252 1260 
1253 1257 
1253 1260 
1253 1315 
1254 1258 
1254 1259 
1254 1316 
1255 1257 
1255 1259 
1255 1355 
1256 1258 
1256 1260 
1256 1356 
1261 1267 
1261 1268 
1262 1269 
1262 1270 
1263 1267 
1263 1270 
1264 1268 
1264 1269 
1265 1267 
1265 1269 
1265 1373 
1266 1268 
1266 1270 
1266 1374 
1271 1277 
1271 1278 
1272 1279 
1272 1280 
1273 1277 
1273 1280 
1274 1278 
1274 1279 
1275 1277 
1275 1279 
1276 1278 
1276 1280 
1281 1287 
1281 1288 
1282 1289 
1282 1290 
1283 1287 
1283 1290 
1284 1288 
1284 1289 
1285 1287 
1285 1289 
1285 1455 
1286 1288 
1286 1290 
1286 1456 
1291 1297 
1291 1298 
1292 1299 
1292 1300 
1293 1297 
1293 1300 
1294 1298 
1294 1299 
1295 1297 
1295 1299 
1296 1298 
1296 1300 
1301 1307 
1301 1308 
1302 1309 
1302 1310 
1303 1307 
1303 1310 
1304 1308 
1304 1309 
1305 1307 
1305 1309 
1306 1308 
1306 1310 
1311 1317 
1311 1318 
1312 1319 
1312 1320 
1313 1317 
1313 1320 
1314 1318 
1314 1319 
1315 1317 
1315 1319 
1316 1318 
1316 1320 
1321 1327 
1321 1328 
1322 1329 
1322 1330 
1323 1327 
1323 1330 
1324 1328 
1324 1329 
1325 1327 
1325 1329 
1326 1328 
1326 1330 
1331 1337 
1331 1338 
1332 1339 
1332 1340 
1333 1337 
1333 1340 
1334 1338 
1334 1339 
1335 1337 
1335 1339 
1335 1435 
1336 1338 
1336 1340 
1336 1436 
1341 1347 
1341 1348 
1342 1349 
1342 1350 
1343 1347 
1343 1350 
1344 1348 
1344 1349 
1345 1347 
1345 1349 
1346 1348 
1346 1350 
1351 1357 
1351 1358 
1352 1359 
1352 1360 
1353 1357 
1353 1360 
1354 1358 
1354 1359 
1355 1357 
1355 1359 
1356 1358 
1356 1360 
1361 1367 
1361 1368 
1362 1369 
1362 1370 
1363 1367 
1363 1370 
1364 1368 
1364 1369 
1365 1367 
1365 1369 
1366 1368 
1366 1370 
1371 1377 
1371 1378 
1372 1379 
1372 1380 
1373 1377 
1373 1380 
1374 1378 
1374 1379 
1375 1377 
1375 1379 
1375 1425 
1376 1378 
1376 1380 
1376 1426 
1381 1387 
1381 1388 
1382 1389 
1382 1390 
1383 1387 
1383 1390 
1384 1388 
1384 1389 
1385 1387 
1385 1389 
1386 1388 
1386 1390 
1391 1397 
1391 1398 
1392 1399 
1392 1400 
1393 1397 
1393 1400 
1394 1398 
1394 1399 
1395 1397 
1395 1399 
1396 1398 
1396 1400 
1401 1407 
1401 1408 
1402 1409 
1402 1410 
1403 1407 
1403 1410 
1404 1408 
1404 1409 
1405 1407 
1405 1409 
1406 1408 
1406 1410 
1411 1417 
1411 1418 
1412 1419 
1412 1420 
1413 1417 
1413 1420 
1414 1418 
1414 1419 
1415 1417 
1415 1419 
1416 1418 
1416 1420 
1421 1427 
1421 1428 
1422 1429 
1422 1430 
1423 1427 
1423 1430 
1424 1428 
1424 1429 
1425 1427 
1425 1429 
1426 1428 
1426 1430 
1431 1437 
1431 1438 
1432 1439 
1432 1440 
1433 1437 
1433 1440 
1434 1438 
1434 1439 
1435 1437 
1435 1439 
1436 1438 
1436 1440 
1441 1447 
1441 1448 
1442 1449 
1442 1450 
1443 1447 
1443 1450 
1444 1448 
1444 1449 
1445 1447 
1445 1449 
1446 1448 
1446 1450 
1451 1457 
1451 1458 
1452 1459 
1452 1460 
1453 1457 
1453 1460 
1454 1458 
1454 1459 
1455 1457 
1455 1459 
1456 1458 
1456 1460 
